V = 100;
E = 10;
R = 100;
realReq = 81;
C = 10;
X = 100;
% total_connection = 32;

videoSize = [20, 11, 50, 26, 5, 3, 6, 32, 40, 22, 4, 20, 50, 27, 49, 44, 1, 37, 35, 27, 14, 33, 6, 22, 23, 48, 44, 14, 26, 9, 46, 44, 15, 32, 31, 8, 39, 27, 39, 27, 1, 17, 1, 47, 44, 42, 16, 3, 44, 48, 5, 25, 4, 39, 39, 7, 24, 28, 14, 44, 22, 11, 27, 37, 11, 16, 50, 33, 22, 26, 7, 12, 17, 30, 12, 12, 4, 32, 12, 46, 43, 4, 12, 34, 11, 7, 47, 29, 24, 40, 41, 10, 5, 22, 22, 24, 37, 34, 50, 5];

videoInCap = [20, 11, 50, 26, 5, 3, 6, 32, 40, 22, 4, 20, 50, 27, 49, 44, 1, 37, 35, 27, 14, 33, 6, 22, 23, 48, 44, 14, 26, 9, 46, 44, 15, 32, 31, 8, 39, 27, 39, 27, 1, 17, 1, 47, 44, 42, 16, 3, 44, 48, 5, 25, 4, 39, 39, 7, 24, 28, 14, 44, 22, 11, 27, 37, 11, 16, 50, 33, 22, 26, 7, 12, 17, 30, 12, 12, 4, 32, 12, 46, 43, 4, 12, 34, 11, 7, 47, 29, 24, 40, 41, 10, 5, 22, 22, 24, 37, 34, 50, 5];

nReqVid = 36;

reqVid = [20, 11, 50, 26, 5, 3, 6, 32, 40, 0, 4, 20, 0, 27, 0, 44, 1, 37, 0, 27, 0, 33, 0, 22, 23, 0, 44, 14, 0, 0, 46, 44, 15, 0, 31, 0, 0, 0, 0, 0, 0, 0, 0, 47, 44, 0, 16, 0, 0, 0, 0, 0, 0, 0, 39, 0, 0, 0, 0, 0, 0, 0, 27, 0, 0, 16, 0, 0, 0, 0, 0, 0, 0, 0, 12, 0, 0, 0, 0, 0, 0, 4, 12, 0, 0, 0, 0, 0, 0, 40, 0, 0, 0, 0, 0, 0, 0, 0, 0, 5];

% nUnReqVid = 64;

% unreqVid = [0, 0, 0, 0, 0, 0, 0, 0, 0, 22, 0, 0, 50, 0, 49, 0, 0, 0, 35, 0, 14, 0, 6, 0, 0, 48, 0, 0, 26, 9, 0, 0, 0, 32, 0, 8, 39, 27, 39, 27, 1, 17, 1, 0, 0, 42, 0, 3, 44, 48, 5, 25, 4, 39, 0, 7, 24, 28, 14, 44, 22, 11, 0, 37, 11, 0, 50, 33, 22, 26, 7, 12, 17, 30, 0, 12, 4, 32, 12, 46, 43, 0, 0, 34, 11, 7, 47, 29, 24, 0, 41, 10, 5, 22, 22, 24, 37, 34, 50, 0];

endpoint = [| 1013, 3
	| 696, 2
	| 1114, 3
	| 464, 2
	| 522, 5
	| 321, 4
	| 1288, 2
	| 226, 1
	| 316, 5
	| 365, 5 |];

request = [| 28, 5, 340
	| 14, 9, 249
	| 2, 2, 449
	| 25, 5, 279
	| 1, 3, 1741
	| 9, 5, 862
	| 2, 6, 51
	| 1, 10, 1417
	| 31, 10, 927
	| 1, 9, 3296
	| 4, 5, 214
	| 1, 5, 1650
	| 3, 4, 986
	| 8, 3, 785
	| 17, 10, 996
	| 9, 6, 1654
	| 90, 2, 297
	| 20, 6, 748
	| 32, 1, 585
	| 3, 6, 853
	| 1, 2, 1891
	| 9, 1, 186
	| 6, 6, 676
	| 82, 3, 120
	| 4, 9, 247
	| 17, 6, 620
	| 33, 3, 717
	| 9, 3, 396
	| 9, 7, 300
	| 35, 4, 752
	| 14, 1, 459
	| 5, 10, 1263
	| 8, 1, 214
	| 14, 3, 934
	| 22, 9, 880
	| 1, 4, 1954
	| 2, 7, 988
	| 63, 7, 8
	| 2, 9, 511
	| 17, 7, 939
	| 8, 2, 116
	| 6, 2, 554
	| 18, 3, 605
	| 8, 8, 204
	| 1, 7, 664
	| 3, 5, 906
	| 17, 9, 93
	| 100, 1, 772
	| 24, 7, 262
	| 2, 8, 780
	| 27, 5, 10
	| 2, 1, 884
	| 3, 10, 725
	| 11, 2, 128
	| 4, 4, 899
	| 3, 8, 861
	| 4, 3, 103
	| 75, 8, 885
	| 55, 5, 621
	| 31, 9, 882
	| 16, 1, 737
	| 45, 9, 267
	| 66, 8, 109
	| 5, 9, 859
	| 27, 1, 194
	| 11, 10, 280
	| 6, 10, 537
	| 2, 10, 116
	| 47, 2, 435
	| 6, 8, 314
	| 5, 7, 512
	| 7, 4, 577
	| 11, 3, 709
	| 66, 1, 926
	| 83, 6, 720
	| 55, 8, 671
	| 17, 4, 70
	| 44, 7, 331
	| 11, 4, 849
	| 12, 8, 301
	| 2, 4, 409 |];

eConCache = [| 170, 22, 224, 0, 0, 0, 0, 0, 0, 0
		| 7, 50, 0, 0, 0, 0, 0, 0, 0, 0
		| 0, 202, 0, 0, 175, 2, 0, 0, 0, 0
		| 0, 24, 0, 0, 0, 0, 0, 0, 25, 0
		| 0, 0, 0, 216, 0, 155, 139, 208, 145, 0
		| 26, 0, 70, 0, 0, 0, 0, 0, 159, 92
		| 0, 0, 163, 0, 0, 0, 0, 0, 0, 153
		| 0, 0, 0, 0, 0, 0, 0, 86, 0, 0
		| 0, 0, 0, 0, 236, 79, 9, 53, 67, 0
		| 0, 0, 225, 62, 0, 141, 147, 0, 0, 66 |]
